flow=[(1,6,3)(5,0,1)(5,1,2)(5,2,2)(5,6,12)(5,8,2)(5,10,1)(5,11,15)(5,12,11)(5,13,1)(6,1,1)(6,10,1)(6,11,10)(9,6,2)(10,4,3)(10,6,2)(10,9,3)(11,6,6)(11,8,3)(11,10,2)(11,12,4)(12,1,2)(12,5,6)(12,6,3)(12,11,7)(12,13,1)];
